c --- [ banner ] -------------------------------------------------------------
c 
c CaDiCaL SAT Solver
c Copyright (c) 2016-2024
c A. Biere, M. Fleury, N. Froleyks, K. Fazekas, F. Pollitt, T. Faller
c JKU Linz, University of Freiburg, TU Wien
c 
c Version 2.1.3 f13d74439a5b5c963ac5b02d05ce93a8098018b8
c g++ (Gentoo 12.3.1_p20230526 p2) 12.3.1 20230526 -Wall -Wextra -O3 -DNDEBUG
c Thu Apr 10 08:26:21 EDT 2025 Linux narval2.narval.calcul.quebec 4.18.0-553.40.1.el8_10.x86_64 x86_64
c 
c --- [ parsing input ] ------------------------------------------------------
c 
c reading DIMACS file from 'cnfs//op_complete_15.cnf'
c opening file to read 'cnfs//op_complete_15.cnf'
c found 'p cnf 210 2850' header
c parsed 2850 clauses in 0.00 seconds process time
c 
c --- [ options ] ------------------------------------------------------------
c 
c all options are set to their default value
c 
c --- [ solving ] ------------------------------------------------------------
c 
c time measured in process time since initialization
c 
c  seconds  reductions  redundant irredundant
c         MB    restarts       trail    variables
c          level   conflicts       glue     remaining
c 
c *  0.00  4  0 0   0    0    0  0% 0 2850 210 100%
c {  0.00  4  0 0   0    0    0  0% 0 2850 210 100%
c -  0.00  4 16 1   4  305  122 31% 4 2850 210 100%
c i  0.00  4 15 1   4  362  155 30% 4 2850 208 99%
c i  0.00  4 15 1   4  367  156 30% 4 2850 206 98%
c }  0.00  4 14 1   4  370  157 30% 4 2850 203 97%
c 0  0.00  4 14 1   4  370  157 30% 4 2850 203 97%
c 
c --- [ result ] -------------------------------------------------------------
c 
s UNSATISFIABLE
c 
c --- [ run-time profiling ] -------------------------------------------------
c 
c process time taken by individual solving procedures
c (percentage relative to process time for solving)
c 
c         0.00   95.86% search
c         0.00   90.47% unstable
c         0.00   50.79% parse
c         0.00    4.76% lucky
c         0.00    0.00% simplify
c   =================================
c         0.00   58.84% solve
c 
c last line shows process time for solving
c (percentage relative to total process time)
c 
c --- [ statistics ] ---------------------------------------------------------
c 
c chronological:               103        27.84 %  of conflicts
c conflicts:                   370    193717.28    per second
c decisions:                   691    361780.10    per second
c fixed:                         7         3.33 %  of all variables
c learned:                     217        58.65 %  per conflict
c learned_lits:               2120       100.00 %  learned literals
c minimized:                     0         0.00 %  learned literals
c shrunken:                    108         5.09 %  learned literals
c minishrunken:                 98         4.62 %  learned literals
c otfs:                        121        32.70 %  of conflict
c propagations:               4342         2.27 M  per second
c restarts:                      4        92.50    interval
c subsumed:                     64         2.09 %  of all clauses
c strengthened:                114         3.72 %  of all clauses
c 
c seconds are measured in process time for solving
c 
c --- [ resources ] ----------------------------------------------------------
c 
c total process time since initialization:         0.00    seconds
c total real time since initialization:            0.07    seconds
c maximum resident set size of process:            4.17    MB
c 
c --- [ shutting down ] ------------------------------------------------------
c 
c exit 20
